data/lp_files/pEFS/38_1.lp
\ Model foo
\ LP format - for model browsing. Use MPS format to capture full model detail.
Minimize
  z
Subject To
 allocateEach[1]: x[1,1] + x[2,1] = 1
 allocateEach[2]: x[1,2] + x[2,2] = 1
 allocateEach[3]: x[1,3] + x[2,3] = 1
 allocateEach[4]: x[1,4] + x[2,4] = 1
 allocateEach[5]: x[1,5] + x[2,5] = 1
 allocateEach[6]: x[1,6] + x[2,6] = 1
 allocateEach[7]: x[1,7] + x[2,7] = 1
 allocateEach[8]: x[1,8] + x[2,8] = 1
 allocateEach[9]: x[1,9] + x[2,9] = 1
 allocateEach[10]: x[1,10] + x[2,10] = 1
 allocateEach[11]: x[1,11] + x[2,11] = 1
 allocateEach[12]: x[1,12] + x[2,12] = 1
 allocateEach[13]: x[1,13] + x[2,13] = 1
 allocateEach[14]: x[1,14] + x[2,14] = 1
 allocateEach[15]: x[1,15] + x[2,15] = 1
 allocateEach[16]: x[1,16] + x[2,16] = 1
 allocateEach[17]: x[1,17] + x[2,17] = 1
 allocateEach[18]: x[1,18] + x[2,18] = 1
 allocateAllCash: cashProportion[1] + cashProportion[2] = 1
 findWorstP[1,2]: z + 0.010557766821162 cashProportion[1]
   - 0.010557766821162 cashProportion[2] + 0.0656059630267006 x[1,1]
   + 0.0418298721454438 x[1,2] + 0.0977015741630331 x[1,3]
   + 0.0536756865187876 x[1,4] + 0.0102093605160636 x[1,5]
   + 0.0582894306196354 x[1,6] + 0.0178531836945849 x[1,7]
   + 0.079383848728317 x[1,8] + 0.0500332569654867 x[1,9]
   + 0.0188772870762376 x[1,10] + 0.0458101502370219 x[1,11]
   + 0.071043212939599 x[1,12] + 0.0584900281892374 x[1,13]
   + 0.104669700265 x[1,14] + 0.0304485995122312 x[1,15]
   + 0.0602109441810868 x[1,16] + 0.0257609510436353 x[1,17]
   + 0.0995491833567364 x[1,18] - 0.0656059630267006 x[2,1]
   - 0.0418298721454438 x[2,2] - 0.0977015741630331 x[2,3]
   - 0.0536756865187876 x[2,4] - 0.0102093605160636 x[2,5]
   - 0.0582894306196354 x[2,6] - 0.0178531836945849 x[2,7]
   - 0.079383848728317 x[2,8] - 0.0500332569654867 x[2,9]
   - 0.0188772870762376 x[2,10] - 0.0458101502370219 x[2,11]
   - 0.071043212939599 x[2,12] - 0.0584900281892374 x[2,13]
   - 0.104669700265 x[2,14] - 0.0304485995122312 x[2,15]
   - 0.0602109441810868 x[2,16] - 0.0257609510436353 x[2,17]
   - 0.0995491833567364 x[2,18] >= 0
 findWorstP[2,1]: z - 0.00961002517826597 cashProportion[1]
   + 0.00961002517826597 cashProportion[2] - 0.0549309039189683 x[1,1]
   - 0.091814180553153 x[1,2] - 0.018210997712814 x[1,3]
   - 0.0483384266466778 x[1,4] - 0.0248034749851045 x[1,5]
   - 0.0899498356685695 x[1,6] - 0.0767744911491668 x[1,7]
   - 0.031905283591843 x[1,8] - 0.0446770070537585 x[1,9]
   - 0.07204635876146 x[1,10] - 0.0685098694958581 x[1,11]
   - 0.00322896845989736 x[1,12] - 0.060485498472006 x[1,13]
   - 0.0836937092775183 x[1,14] - 0.0676641872801707 x[1,15]
   - 0.0584673931845702 x[1,16] - 0.0903438467008784 x[1,17]
   - 0.0045455419093198 x[1,18] + 0.0549309039189683 x[2,1]
   + 0.091814180553153 x[2,2] + 0.018210997712814 x[2,3]
   + 0.0483384266466778 x[2,4] + 0.0248034749851045 x[2,5]
   + 0.0899498356685695 x[2,6] + 0.0767744911491668 x[2,7]
   + 0.031905283591843 x[2,8] + 0.0446770070537585 x[2,9]
   + 0.07204635876146 x[2,10] + 0.0685098694958581 x[2,11]
   + 0.00322896845989736 x[2,12] + 0.060485498472006 x[2,13]
   + 0.0836937092775183 x[2,14] + 0.0676641872801707 x[2,15]
   + 0.0584673931845702 x[2,16] + 0.0903438467008784 x[2,17]
   + 0.0045455419093198 x[2,18] >= 0
Bounds
 z <= 1
 -infinity <= cashProportion[1] <= 1
 -infinity <= cashProportion[2] <= 1
Binaries
 x[1,1] x[1,2] x[1,3] x[1,4] x[1,5] x[1,6] x[1,7] x[1,8] x[1,9] x[1,10]
 x[1,11] x[1,12] x[1,13] x[1,14] x[1,15] x[1,16] x[1,17] x[1,18] x[2,1]
 x[2,2] x[2,3] x[2,4] x[2,5] x[2,6] x[2,7] x[2,8] x[2,9] x[2,10] x[2,11]
 x[2,12] x[2,13] x[2,14] x[2,15] x[2,16] x[2,17] x[2,18]
End
