data/mps_files/q3/38_1.mps
NAME foo
ROWS
 N  OBJ
 E  allocateEach[1]
 E  allocateEach[2]
 E  allocateEach[3]
 E  allocateEach[4]
 E  allocateEach[5]
 E  allocateEach[6]
 E  allocateEach[7]
 E  allocateEach[8]
 E  allocateEach[9]
 E  allocateEach[10]
 E  allocateEach[11]
 E  allocateEach[12]
 E  allocateEach[13]
 E  allocateEach[14]
 E  allocateEach[15]
 E  allocateEach[16]
 E  allocateEach[17]
 E  allocateEach[18]
 E  allocateAllCash
 G  findWorstP[1,2]
 G  findWorstP[2,1]
COLUMNS
    z         OBJ       1
    z         findWorstP[1,2]  1
    z         findWorstP[2,1]  1
    cashProportion[1]  allocateAllCash  1
    cashProportion[1]  findWorstP[1,2]  1.0557766821161991e-02
    cashProportion[1]  findWorstP[2,1]  -9.6100251782659674e-03
    cashProportion[2]  allocateAllCash  1
    cashProportion[2]  findWorstP[1,2]  -1.0557766821161991e-02
    cashProportion[2]  findWorstP[2,1]  9.6100251782659674e-03
    MARKER    'MARKER'                 'INTORG'
    x[1,1]    allocateEach[1]  1
    x[1,1]    findWorstP[1,2]  0.0656059630267006
    x[1,1]    findWorstP[2,1]  -5.4930903918968266e-02
    x[1,2]    allocateEach[2]  1
    x[1,2]    findWorstP[1,2]  4.1829872145443807e-02
    x[1,2]    findWorstP[2,1]  -9.1814180553153046e-02
    x[1,3]    allocateEach[3]  1
    x[1,3]    findWorstP[1,2]  9.7701574163033059e-02
    x[1,3]    findWorstP[2,1]  -1.8210997712814009e-02
    x[1,4]    allocateEach[4]  1
    x[1,4]    findWorstP[1,2]  5.3675686518787555e-02
    x[1,4]    findWorstP[2,1]  -4.8338426646677812e-02
    x[1,5]    allocateEach[5]  1
    x[1,5]    findWorstP[1,2]  1.0209360516063644e-02
    x[1,5]    findWorstP[2,1]  -2.4803474985104462e-02
    x[1,6]    allocateEach[6]  1
    x[1,6]    findWorstP[1,2]  5.8289430619635353e-02
    x[1,6]    findWorstP[2,1]  -8.9949835668569456e-02
    x[1,7]    allocateEach[7]  1
    x[1,7]    findWorstP[1,2]  1.7853183694584926e-02
    x[1,7]    findWorstP[2,1]  -7.6774491149166818e-02
    x[1,8]    allocateEach[8]  1
    x[1,8]    findWorstP[1,2]  7.9383848728317011e-02
    x[1,8]    findWorstP[2,1]  -3.1905283591843012e-02
    x[1,9]    allocateEach[9]  1
    x[1,9]    findWorstP[1,2]  5.0033256965486668e-02
    x[1,9]    findWorstP[2,1]  -4.4677007053758482e-02
    x[1,10]   allocateEach[10]  1
    x[1,10]   findWorstP[1,2]  1.8877287076237637e-02
    x[1,10]   findWorstP[2,1]  -7.2046358761459955e-02
    x[1,11]   allocateEach[11]  1
    x[1,11]   findWorstP[1,2]  4.5810150237021875e-02
    x[1,11]   findWorstP[2,1]  -6.8509869495858078e-02
    x[1,12]   allocateEach[12]  1
    x[1,12]   findWorstP[1,2]  7.1043212939599032e-02
    x[1,12]   findWorstP[2,1]  -3.2289684598973646e-03
    x[1,13]   allocateEach[13]  1
    x[1,13]   findWorstP[1,2]  5.8490028189237431e-02
    x[1,13]   findWorstP[2,1]  -6.0485498472005995e-02
    x[1,14]   allocateEach[14]  1
    x[1,14]   findWorstP[1,2]  1.0466970026499997e-01
    x[1,14]   findWorstP[2,1]  -0.0836937092775183
    x[1,15]   allocateEach[15]  1
    x[1,15]   findWorstP[1,2]  3.0448599512231177e-02
    x[1,15]   findWorstP[2,1]  -6.7664187280170665e-02
    x[1,16]   allocateEach[16]  1
    x[1,16]   findWorstP[1,2]  6.0210944181086835e-02
    x[1,16]   findWorstP[2,1]  -5.8467393184570150e-02
    x[1,17]   allocateEach[17]  1
    x[1,17]   findWorstP[1,2]  2.5760951043635256e-02
    x[1,17]   findWorstP[2,1]  -9.0343846700878361e-02
    x[1,18]   allocateEach[18]  1
    x[1,18]   findWorstP[1,2]  0.0995491833567364
    x[1,18]   findWorstP[2,1]  -4.5455419093198028e-03
    x[2,1]    allocateEach[1]  1
    x[2,1]    findWorstP[1,2]  -0.0656059630267006
    x[2,1]    findWorstP[2,1]  5.4930903918968266e-02
    x[2,2]    allocateEach[2]  1
    x[2,2]    findWorstP[1,2]  -4.1829872145443807e-02
    x[2,2]    findWorstP[2,1]  9.1814180553153046e-02
    x[2,3]    allocateEach[3]  1
    x[2,3]    findWorstP[1,2]  -9.7701574163033059e-02
    x[2,3]    findWorstP[2,1]  1.8210997712814009e-02
    x[2,4]    allocateEach[4]  1
    x[2,4]    findWorstP[1,2]  -5.3675686518787555e-02
    x[2,4]    findWorstP[2,1]  4.8338426646677812e-02
    x[2,5]    allocateEach[5]  1
    x[2,5]    findWorstP[1,2]  -1.0209360516063644e-02
    x[2,5]    findWorstP[2,1]  2.4803474985104462e-02
    x[2,6]    allocateEach[6]  1
    x[2,6]    findWorstP[1,2]  -5.8289430619635353e-02
    x[2,6]    findWorstP[2,1]  8.9949835668569456e-02
    x[2,7]    allocateEach[7]  1
    x[2,7]    findWorstP[1,2]  -1.7853183694584926e-02
    x[2,7]    findWorstP[2,1]  7.6774491149166818e-02
    x[2,8]    allocateEach[8]  1
    x[2,8]    findWorstP[1,2]  -7.9383848728317011e-02
    x[2,8]    findWorstP[2,1]  3.1905283591843012e-02
    x[2,9]    allocateEach[9]  1
    x[2,9]    findWorstP[1,2]  -5.0033256965486668e-02
    x[2,9]    findWorstP[2,1]  4.4677007053758482e-02
    x[2,10]   allocateEach[10]  1
    x[2,10]   findWorstP[1,2]  -1.8877287076237637e-02
    x[2,10]   findWorstP[2,1]  7.2046358761459955e-02
    x[2,11]   allocateEach[11]  1
    x[2,11]   findWorstP[1,2]  -4.5810150237021875e-02
    x[2,11]   findWorstP[2,1]  6.8509869495858078e-02
    x[2,12]   allocateEach[12]  1
    x[2,12]   findWorstP[1,2]  -7.1043212939599032e-02
    x[2,12]   findWorstP[2,1]  3.2289684598973646e-03
    x[2,13]   allocateEach[13]  1
    x[2,13]   findWorstP[1,2]  -5.8490028189237431e-02
    x[2,13]   findWorstP[2,1]  6.0485498472005995e-02
    x[2,14]   allocateEach[14]  1
    x[2,14]   findWorstP[1,2]  -1.0466970026499997e-01
    x[2,14]   findWorstP[2,1]  0.0836937092775183
    x[2,15]   allocateEach[15]  1
    x[2,15]   findWorstP[1,2]  -3.0448599512231177e-02
    x[2,15]   findWorstP[2,1]  6.7664187280170665e-02
    x[2,16]   allocateEach[16]  1
    x[2,16]   findWorstP[1,2]  -6.0210944181086835e-02
    x[2,16]   findWorstP[2,1]  5.8467393184570150e-02
    x[2,17]   allocateEach[17]  1
    x[2,17]   findWorstP[1,2]  -2.5760951043635256e-02
    x[2,17]   findWorstP[2,1]  9.0343846700878361e-02
    x[2,18]   allocateEach[18]  1
    x[2,18]   findWorstP[1,2]  -0.0995491833567364
    x[2,18]   findWorstP[2,1]  4.5455419093198028e-03
    MARKER    'MARKER'                 'INTEND'
RHS
    RHS1      allocateEach[1]  1
    RHS1      allocateEach[2]  1
    RHS1      allocateEach[3]  1
    RHS1      allocateEach[4]  1
    RHS1      allocateEach[5]  1
    RHS1      allocateEach[6]  1
    RHS1      allocateEach[7]  1
    RHS1      allocateEach[8]  1
    RHS1      allocateEach[9]  1
    RHS1      allocateEach[10]  1
    RHS1      allocateEach[11]  1
    RHS1      allocateEach[12]  1
    RHS1      allocateEach[13]  1
    RHS1      allocateEach[14]  1
    RHS1      allocateEach[15]  1
    RHS1      allocateEach[16]  1
    RHS1      allocateEach[17]  1
    RHS1      allocateEach[18]  1
    RHS1      allocateAllCash  1
BOUNDS
 UP BND1      z         1
 MI BND1      cashProportion[1]
 UP BND1      cashProportion[1]  1
 MI BND1      cashProportion[2]
 UP BND1      cashProportion[2]  1
 BV BND1      x[1,1]  
 BV BND1      x[1,2]  
 BV BND1      x[1,3]  
 BV BND1      x[1,4]  
 BV BND1      x[1,5]  
 BV BND1      x[1,6]  
 BV BND1      x[1,7]  
 BV BND1      x[1,8]  
 BV BND1      x[1,9]  
 BV BND1      x[1,10] 
 BV BND1      x[1,11] 
 BV BND1      x[1,12] 
 BV BND1      x[1,13] 
 BV BND1      x[1,14] 
 BV BND1      x[1,15] 
 BV BND1      x[1,16] 
 BV BND1      x[1,17] 
 BV BND1      x[1,18] 
 BV BND1      x[2,1]  
 BV BND1      x[2,2]  
 BV BND1      x[2,3]  
 BV BND1      x[2,4]  
 BV BND1      x[2,5]  
 BV BND1      x[2,6]  
 BV BND1      x[2,7]  
 BV BND1      x[2,8]  
 BV BND1      x[2,9]  
 BV BND1      x[2,10] 
 BV BND1      x[2,11] 
 BV BND1      x[2,12] 
 BV BND1      x[2,13] 
 BV BND1      x[2,14] 
 BV BND1      x[2,15] 
 BV BND1      x[2,16] 
 BV BND1      x[2,17] 
 BV BND1      x[2,18] 
ENDATA
